SAT
Model:
1 -> true
2 -> false
3 -> true
4 -> false
5 -> false
6 -> false
7 -> false
8 -> false
9 -> false
10 -> false
11 -> true
12 -> false
13 -> false
14 -> true
15 -> true
16 -> true
17 -> true
18 -> true
19 -> true
20 -> true
21 -> true
22 -> true
23 -> false
24 -> true
25 -> false
26 -> false
27 -> true
28 -> true
29 -> false
30 -> false
31 -> true
32 -> false
33 -> false
34 -> false
35 -> true
36 -> true
37 -> true
38 -> false
39 -> true
40 -> false
41 -> true
42 -> true
43 -> false
44 -> true
45 -> false
46 -> false
47 -> true
48 -> false
49 -> true
50 -> true
